Version identifier: 20.1.0.0 | 2020-11-10 | 9bedb6d68
CPXPARAM_Parallel                                1
CPXPARAM_Simplex_Limits_Iterations               10000000
CPXPARAM_MIP_Interval                            100
CPXPARAM_TimeLimit                               900
CPXPARAM_MIP_Tolerances_AbsMIPGap                0
CPXPARAM_MIP_Tolerances_MIPGap                   0
Found incumbent of value 2.7969330e+07 after 0.00 sec. (0.91 ticks)
Tried aggregator 2 times.
MIP Presolve eliminated 1872 rows and 648 columns.
MIP Presolve modified 1368 coefficients.
Aggregator did 1368 substitutions.
Reduced MIP has 4892 rows, 6264 columns, and 25404 nonzeros.
Reduced MIP has 432 binaries, 0 generals, 0 SOSs, and 0 indicators.
Presolve time = 0.02 sec. (21.07 ticks)
Probing time = 0.00 sec. (0.90 ticks)
Tried aggregator 1 time.
Detecting symmetries...
Reduced MIP has 4892 rows, 6264 columns, and 25404 nonzeros.
Reduced MIP has 858 binaries, 0 generals, 0 SOSs, and 0 indicators.
Presolve time = 0.02 sec. (12.78 ticks)
Probing time = 0.00 sec. (1.14 ticks)
MIP emphasis: balance optimality and feasibility.
MIP search method: dynamic search.
Parallel mode: deterministic, using up to 2 threads.
Root relaxation solution time = 0.13 sec. (94.87 ticks)

        Nodes                                         Cuts/
   Node  Left     Objective  IInf  Best Integer    Best Bound    ItCnt     Gap

*     0+    0                       2.79693e+07 -2383180.2200           108.52%
*     0+    0                     -1372221.7943 -2383180.2200            73.67%
      0     0 -1380211.2084   233 -1372221.7943 -1380211.2084     4347    0.58%
*     0+    0                     -1376506.7360 -1380211.2084             0.27%
*     0+    0                     -1376584.5002 -1380211.2084             0.26%
      0     0 -1377227.9591   104 -1376584.5002    Cuts: 1173     5525    0.05%
*     0+    0                     -1376728.0466 -1377227.9591             0.04%
      0     0 -1376984.2436    59 -1376728.0466     Cuts: 406     5921    0.02%
*     0+    0                     -1376957.8842 -1376984.2436             0.00%
      0     0 -1376962.5851    14 -1376957.8842     Cuts: 111     5983    0.00%
Detecting symmetries...
      0     2 -1376962.5473    11 -1376957.8842 -1376962.5473     5983    0.00%
Elapsed time = 1.81 sec. (814.32 ticks, tree = 0.02 MB, solutions = 7)
*     4     1      integral     0 -1376958.8483 -1376961.8402     6019    0.00%

Implied bound cuts applied:  925
Flow cuts applied:  42
Mixed integer rounding cuts applied:  254
Gomory fractional cuts applied:  12

Root node processing (before b&c):
  Real time             =    1.80 sec. (805.72 ticks)
Parallel b&c, 2 threads:
  Real time             =    0.05 sec. (37.98 ticks)
  Sync time (average)   =    0.01 sec.
  Wait time (average)   =    0.00 sec.
                          ------------
Total (root+branch&cut) =    1.85 sec. (843.70 ticks)

Optimal integer solution found
Solution value = 0.000000

CPLEX Error  1217: No solution exists.
Simplex iterations = 0


Version identifier: 20.1.0.0 | 2020-11-10 | 9bedb6d68
CPXPARAM_Parallel                                1
CPXPARAM_Simplex_Limits_Iterations               10000000
CPXPARAM_MIP_Interval                            100
CPXPARAM_TimeLimit                               900
CPXPARAM_MIP_Tolerances_AbsMIPGap                0
CPXPARAM_MIP_Tolerances_MIPGap                   0
Problem is feasible; no conflict available.
Version identifier: 20.1.0.0 | 2020-11-10 | 9bedb6d68
CPXPARAM_Parallel                                1
CPXPARAM_Simplex_Limits_Iterations               10000000
CPXPARAM_MIP_Interval                            100
CPXPARAM_TimeLimit                               900
CPXPARAM_MIP_Tolerances_AbsMIPGap                0
CPXPARAM_MIP_Tolerances_MIPGap                   0
Tried aggregator 2 times.
MIP Presolve eliminated 1905 rows and 556 columns.
MIP Presolve modified 1123 coefficients.
Aggregator did 1673 substitutions.
Reduced MIP has 4980 rows, 6922 columns, and 27638 nonzeros.
Reduced MIP has 432 binaries, 0 generals, 0 SOSs, and 0 indicators.
Presolve time = 0.03 sec. (21.97 ticks)
Found incumbent of value 2.4758318e+10 after 0.04 sec. (29.90 ticks)
Probing time = 0.00 sec. (1.01 ticks)
Tried aggregator 1 time.
Detecting symmetries...
Reduced MIP has 4980 rows, 6922 columns, and 27638 nonzeros.
Reduced MIP has 858 binaries, 0 generals, 0 SOSs, and 0 indicators.
Presolve time = 0.02 sec. (13.03 ticks)
Probing time = 0.00 sec. (1.27 ticks)
MIP emphasis: balance optimality and feasibility.
MIP search method: dynamic search.
Parallel mode: deterministic, using up to 2 threads.
Root relaxation solution time = 0.17 sec. (123.46 ticks)

        Nodes                                         Cuts/
   Node  Left     Objective  IInf  Best Integer    Best Bound    ItCnt     Gap

*     0+    0                       2.47583e+10  -2.45256e+07           100.10%
*     0+    0                     -1241074.2274  -2.45256e+07              --- 
      0     0 -1290130.1639   303 -1241074.2274 -1290130.1639     4806    3.95%
*     0+    0                     -1278842.6145 -1290130.1639             0.88%
*     0+    0                     -1280025.8821 -1290130.1639             0.79%
      0     0 -1284742.7196   216 -1280025.8821    Cuts: 1345     6548    0.37%
*     0+    0                     -1281777.9027 -1284742.7196             0.23%
      0     0 -1283359.2522   186 -1281777.9027    Cuts: 1021     7482    0.12%
*     0+    0                     -1282411.4455 -1283359.2522             0.07%
      0     0 -1283103.0969   164 -1282411.4455     Cuts: 535     8028    0.05%
*     0+    0                     -1282808.2190 -1283103.0969             0.02%
      0     0 -1282995.5577   158 -1282808.2190     Cuts: 300     8362    0.01%
*     0+    0                     -1282856.6059 -1282995.5577             0.01%
      0     0 -1282923.5526   163 -1282856.6059     Cuts: 136     8571    0.01%
Detecting symmetries...
      0     0 -1282907.2169   123 -1282856.6059     Cuts: 119     8693    0.00%
      0     0 -1282902.4502   135 -1282856.6059      Cuts: 32     8745    0.00%
      0     0 -1282899.8979   126 -1282856.6059      Cuts: 23     8779    0.00%
      0     0 -1282895.3470   126 -1282856.6059      Cuts: 19     8816    0.00%
*     0+    0                     -1282860.8466 -1282895.3470             0.00%
Detecting symmetries...
      0     2 -1282895.3470   126 -1282860.8466 -1282895.3470     8816    0.00%
Elapsed time = 3.93 sec. (2257.31 ticks, tree = 0.02 MB, solutions = 10)
*    27     6      integral     0 -1282863.8614 -1282876.1157     9480    0.00%

Implied bound cuts applied:  1242
Flow cuts applied:  94
Mixed integer rounding cuts applied:  398
Gomory fractional cuts applied:  12

Root node processing (before b&c):
  Real time             =    3.88 sec. (2212.18 ticks)
Parallel b&c, 2 threads:
  Real time             =    0.51 sec. (431.14 ticks)
  Sync time (average)   =    0.11 sec.
  Wait time (average)   =    0.00 sec.
                          ------------
Total (root+branch&cut) =    4.39 sec. (2643.32 ticks)

Optimal integer solution found
Solution value = 0.000000

CPLEX Error  1217: No solution exists.
Simplex iterations = 0


Version identifier: 20.1.0.0 | 2020-11-10 | 9bedb6d68
CPXPARAM_Parallel                                1
CPXPARAM_Simplex_Limits_Iterations               10000000
CPXPARAM_MIP_Interval                            100
CPXPARAM_TimeLimit                               900
CPXPARAM_MIP_Tolerances_AbsMIPGap                0
CPXPARAM_MIP_Tolerances_MIPGap                   0
Problem is feasible; no conflict available.
Version identifier: 20.1.0.0 | 2020-11-10 | 9bedb6d68
CPXPARAM_Parallel                                1
CPXPARAM_Simplex_Limits_Iterations               10000000
CPXPARAM_MIP_Interval                            100
CPXPARAM_TimeLimit                               900
CPXPARAM_MIP_Tolerances_AbsMIPGap                0
CPXPARAM_MIP_Tolerances_MIPGap                   0
Tried aggregator 2 times.
MIP Presolve eliminated 2042 rows and 689 columns.
MIP Presolve modified 1156 coefficients.
Aggregator did 1540 substitutions.
Reduced MIP has 4976 rows, 6726 columns, and 26744 nonzeros.
Reduced MIP has 432 binaries, 0 generals, 0 SOSs, and 0 indicators.
Presolve time = 0.02 sec. (21.59 ticks)
Found incumbent of value 3.4748390e+10 after 0.03 sec. (29.62 ticks)
Probing time = 0.00 sec. (1.00 ticks)
Tried aggregator 1 time.
Detecting symmetries...
Reduced MIP has 4976 rows, 6726 columns, and 26744 nonzeros.
Reduced MIP has 858 binaries, 0 generals, 0 SOSs, and 0 indicators.
Presolve time = 0.02 sec. (12.81 ticks)
Probing time = 0.00 sec. (1.25 ticks)
MIP emphasis: balance optimality and feasibility.
MIP search method: dynamic search.
Parallel mode: deterministic, using up to 2 threads.
Root relaxation solution time = 0.15 sec. (108.45 ticks)

        Nodes                                         Cuts/
   Node  Left     Objective  IInf  Best Integer    Best Bound    ItCnt     Gap

*     0+    0                       3.47484e+10  -2.45256e+07           100.07%
*     0+    0                     -1253385.1792  -2.45256e+07              --- 
      0     0 -1282025.6485   310 -1253385.1792 -1282025.6485     4635    2.29%
*     0+    0                     -1273031.9347 -1282025.6485             0.71%
      0     0 -1275655.6919   232 -1273031.9347    Cuts: 1344     6667    0.21%
*     0+    0                     -1273264.0349 -1275655.6919             0.19%
      0     0 -1274577.3626   190 -1273264.0349    Cuts: 1268     7628    0.10%
*     0+    0                     -1274415.4259 -1274577.3626             0.01%
      0     0 -1274468.5296   165 -1274415.4259     Cuts: 362     8015    0.00%
*     0+    0                     -1274416.8302 -1274468.5296             0.00%
      0     0 -1274447.4115   114 -1274416.8302     Cuts: 154     8160    0.00%
      0     0 -1274443.9914    44 -1274416.8302       Cuts: 6     8172    0.00%
Detecting symmetries...
      0     0 -1274443.9128    44 -1274416.8302   Flowcuts: 2     8175    0.00%
Detecting symmetries...
      0     1 -1274443.9128    44 -1274416.8302 -1274443.9128     8175    0.00%
Elapsed time = 2.85 sec. (1673.30 ticks, tree = 0.02 MB, solutions = 7)
*     7     2      integral     0 -1274416.8302 -1274425.6207     8249    0.00%

Implied bound cuts applied:  1237
Flow cuts applied:  84
Mixed integer rounding cuts applied:  440
Lift and project cuts applied:  1
Gomory fractional cuts applied:  14

Root node processing (before b&c):
  Real time             =    2.83 sec. (1652.04 ticks)
Parallel b&c, 2 threads:
  Real time             =    0.12 sec. (87.32 ticks)
  Sync time (average)   =    0.02 sec.
  Wait time (average)   =    0.00 sec.
                          ------------
Total (root+branch&cut) =    2.95 sec. (1739.36 ticks)

Optimal integer solution found
Solution value = 0.000000

CPLEX Error  1217: No solution exists.
Simplex iterations = 0


Version identifier: 20.1.0.0 | 2020-11-10 | 9bedb6d68
CPXPARAM_Parallel                                1
CPXPARAM_Simplex_Limits_Iterations               10000000
CPXPARAM_MIP_Interval                            100
CPXPARAM_TimeLimit                               900
CPXPARAM_MIP_Tolerances_AbsMIPGap                0
CPXPARAM_MIP_Tolerances_MIPGap                   0
Problem is feasible; no conflict available.
Version identifier: 20.1.0.0 | 2020-11-10 | 9bedb6d68
CPXPARAM_Parallel                                1
CPXPARAM_Simplex_Limits_Iterations               10000000
CPXPARAM_MIP_Interval                            100
CPXPARAM_TimeLimit                               900
CPXPARAM_MIP_Tolerances_AbsMIPGap                0
CPXPARAM_MIP_Tolerances_MIPGap                   0
Tried aggregator 1 time.
LP Presolve eliminated 2297 rows and 874 columns.
Aggregator did 897 substitutions.
Reduced LP has 2079 rows, 4064 columns, and 11492 nonzeros.
Presolve time = 0.01 sec. (6.29 ticks)
Initializing dual steep norms . . .

Iteration log . . .
Iteration:     1   Dual objective     =      -2160046.330004
Iteration:   211   Dual objective     =      -2149459.225010
Iteration:   412   Dual objective     =      -2120510.918349
Iteration:   601   Dual objective     =      -2095297.152795
Iteration:   788   Dual objective     =      -2085852.068884
Iteration:   992   Dual objective     =      -1874988.516722
Iteration:  1211   Dual objective     =      -1761171.922012
Iteration:  1423   Dual objective     =      -1607982.394223
Iteration:  1513   Dual objective     =      -1529200.111305
Iteration:  1681   Dual objective     =      -1322923.127744
Iteration:  1802   Dual objective     =      -1269256.647067
Iteration:  1959   Dual objective     =      -1268324.478416
Iteration:  2114   Dual objective     =      -1267782.817565

Optimal solution is available
Solution value = 0.000000

Simplex iterations = 2120


Version identifier: 20.1.0.0 | 2020-11-10 | 9bedb6d68
CPXPARAM_Parallel                                1
CPXPARAM_Simplex_Limits_Iterations               10000000
CPXPARAM_MIP_Interval                            100
CPXPARAM_TimeLimit                               900
CPXPARAM_MIP_Tolerances_AbsMIPGap                0
CPXPARAM_MIP_Tolerances_MIPGap                   0
Problem is feasible; no conflict available.
Version identifier: 20.1.0.0 | 2020-11-10 | 9bedb6d68
CPXPARAM_Parallel                                1
CPXPARAM_Simplex_Limits_Iterations               10000000
CPXPARAM_MIP_Interval                            100
CPXPARAM_TimeLimit                               900
CPXPARAM_MIP_Tolerances_AbsMIPGap                0
CPXPARAM_MIP_Tolerances_MIPGap                   0
Tried aggregator 1 time.
LP Presolve eliminated 2657 rows and 1144 columns.
Aggregator did 717 substitutions.
Reduced LP has 1899 rows, 3966 columns, and 11128 nonzeros.
Presolve time = 0.01 sec. (6.08 ticks)
Initializing dual steep norms . . .

Iteration log . . .
Iteration:     1   Dual objective     =      -2151954.395423
Iteration:   217   Dual objective     =      -2141344.874167
Iteration:   399   Dual objective     =      -2104014.092894
Iteration:   575   Dual objective     =      -2077161.424294
Iteration:   769   Dual objective     =      -1874436.647879
Iteration:  1003   Dual objective     =      -1702206.112504
Iteration:  1196   Dual objective     =      -1577522.024051
Iteration:  1403   Dual objective     =      -1302230.171492
Iteration:  1509   Dual objective     =      -1268826.951348
Iteration:  1626   Dual objective     =      -1267659.656584
Iteration:  1760   Dual objective     =      -1267277.419997
Removing shift (2).

Optimal solution is available
Solution value = 0.000000

Simplex iterations = 1816


Version identifier: 20.1.0.0 | 2020-11-10 | 9bedb6d68
CPXPARAM_Parallel                                1
CPXPARAM_Simplex_Limits_Iterations               10000000
CPXPARAM_MIP_Interval                            100
CPXPARAM_TimeLimit                               900
CPXPARAM_MIP_Tolerances_AbsMIPGap                0
CPXPARAM_MIP_Tolerances_MIPGap                   0
Problem is feasible; no conflict available.
Version identifier: 20.1.0.0 | 2020-11-10 | 9bedb6d68
CPXPARAM_Parallel                                1
CPXPARAM_Simplex_Limits_Iterations               10000000
CPXPARAM_MIP_Interval                            100
CPXPARAM_TimeLimit                               900
CPXPARAM_MIP_Tolerances_AbsMIPGap                0
CPXPARAM_MIP_Tolerances_MIPGap                   0
Tried aggregator 1 time.
LP Presolve eliminated 2697 rows and 1174 columns.
Aggregator did 697 substitutions.
Reduced LP has 1879 rows, 3972 columns, and 11139 nonzeros.
Presolve time = 0.01 sec. (6.08 ticks)
Initializing dual steep norms . . .

Iteration log . . .
Iteration:     1   Dual objective     =      -2152271.581248
Iteration:   217   Dual objective     =      -2141563.365713
Iteration:   398   Dual objective     =      -2104881.106685
Iteration:   581   Dual objective     =      -2075230.206551
Iteration:   751   Dual objective     =      -1866163.567021
Iteration:  1000   Dual objective     =      -1691480.225280
Iteration:  1204   Dual objective     =      -1574633.004875
Iteration:  1415   Dual objective     =      -1296376.317980
Iteration:  1526   Dual objective     =      -1268752.060992
Iteration:  1702   Dual objective     =      -1267419.928784
Removing shift (2).

Optimal solution is available
Solution value = 0.000000

Simplex iterations = 1818


Version identifier: 20.1.0.0 | 2020-11-10 | 9bedb6d68
CPXPARAM_Parallel                                1
CPXPARAM_Simplex_Limits_Iterations               10000000
CPXPARAM_MIP_Interval                            100
CPXPARAM_TimeLimit                               900
CPXPARAM_MIP_Tolerances_AbsMIPGap                0
CPXPARAM_MIP_Tolerances_MIPGap                   0
Problem is feasible; no conflict available.
Version identifier: 20.1.0.0 | 2020-11-10 | 9bedb6d68
CPXPARAM_Parallel                                1
CPXPARAM_Simplex_Limits_Iterations               10000000
CPXPARAM_MIP_Interval                            100
CPXPARAM_TimeLimit                               900
CPXPARAM_MIP_Tolerances_AbsMIPGap                0
CPXPARAM_MIP_Tolerances_MIPGap                   0
Tried aggregator 1 time.
LP Presolve eliminated 2825 rows and 1270 columns.
Aggregator did 633 substitutions.
Reduced LP has 1815 rows, 3943 columns, and 11020 nonzeros.
Presolve time = 0.01 sec. (6.01 ticks)
Initializing dual steep norms . . .

Iteration log . . .
Iteration:     1   Dual objective     =      -2152143.778529
Iteration:   215   Dual objective     =      -2141414.067181
Iteration:   382   Dual objective     =      -2100540.854561
Iteration:   601   Dual objective     =      -2050561.108914
Iteration:   726   Dual objective     =      -1813821.835910
Iteration:   953   Dual objective     =      -1667134.737786
Iteration:  1188   Dual objective     =      -1502775.893599
Iteration:  1353   Dual objective     =      -1293730.119100
Iteration:  1434   Dual objective     =      -1271766.093028
Iteration:  1564   Dual objective     =      -1267879.869090
Iteration:  1725   Dual objective     =      -1267291.327864
Removing shift (4).

Optimal solution is available
Solution value = 0.000000

Simplex iterations = 1790


Version identifier: 20.1.0.0 | 2020-11-10 | 9bedb6d68
CPXPARAM_Parallel                                1
CPXPARAM_Simplex_Limits_Iterations               10000000
CPXPARAM_MIP_Interval                            100
CPXPARAM_TimeLimit                               900
CPXPARAM_MIP_Tolerances_AbsMIPGap                0
CPXPARAM_MIP_Tolerances_MIPGap                   0
Problem is feasible; no conflict available.
Version identifier: 20.1.0.0 | 2020-11-10 | 9bedb6d68
CPXPARAM_Parallel                                1
CPXPARAM_Simplex_Limits_Iterations               10000000
CPXPARAM_MIP_Interval                            100
CPXPARAM_TimeLimit                               900
CPXPARAM_MIP_Tolerances_AbsMIPGap                0
CPXPARAM_MIP_Tolerances_MIPGap                   0
Tried aggregator 1 time.
LP Presolve eliminated 3493 rows and 1771 columns.
Aggregator did 299 substitutions.
Reduced LP has 1481 rows, 3770 columns, and 10334 nonzeros.
Presolve time = 0.01 sec. (5.44 ticks)
Initializing dual steep norms . . .

Iteration log . . .
Iteration:     1   Dual objective     =      -2152139.987801
Iteration:   198   Dual objective     =      -2088844.696161
Iteration:   414   Dual objective     =      -2045491.029519
Iteration:   524   Dual objective     =      -1777687.557506
Iteration:   725   Dual objective     =      -1689581.518796
Iteration:   874   Dual objective     =      -1613142.004283
Iteration:  1075   Dual objective     =      -1283286.757186
Iteration:  1154   Dual objective     =      -1270335.024068
Iteration:  1244   Dual objective     =      -1268371.815983
Iteration:  1389   Dual objective     =      -1267272.347892
Iteration:  1405   Scaled dual infeas =             0.000003

Optimal solution is available
Solution value = 0.000000

Simplex iterations = 1405


Version identifier: 20.1.0.0 | 2020-11-10 | 9bedb6d68
CPXPARAM_Parallel                                1
CPXPARAM_Simplex_Limits_Iterations               10000000
CPXPARAM_MIP_Interval                            100
CPXPARAM_TimeLimit                               900
CPXPARAM_MIP_Tolerances_AbsMIPGap                0
CPXPARAM_MIP_Tolerances_MIPGap                   0
Problem is feasible; no conflict available.
